10
-1 56 84 53 28 43 39 40 54 80
61 -1 79 93 83 95 36 35 8 6
45 42 -1 90 37 90 8 38 86 26
15 48 92 -1 51 33 19 24 94 56
30 79 92 10 -1 91 21 96 3 63
13 20 60 50 76 -1 45 24 46 51
55 45 34 71 74 54 -1 90 37 24
8 97 29 68 37 48 50 -1 3 59
55 32 90 27 16 26 81 33 -1 45
77 32 43 96 4 91 97 47 21 -1
5
-1 62 47 35 45
93 -1 6 67 93
52 26 -1 20 77
32 34 93 -1 65
15 24 27 52 -1
